20	5
0	9	7	4	8	2	1	5	9	6	3
1	3	11	13	15
2	1	10
3	5	16	11	14	10	15
4	4	15	16	10	13
5	5	18	11	16	10	14
6	5	15	14	11	10	16
7	5	13	17	19	15	12
8	5	15	12	11	13	17
9	5	15	11	13	16	10
10	2	19	17
11	2	19	20
12	3	16	14	18
13	2	18	14
14	1	20
15	0
16	1	21
17	1	21
18	1	21
19	1	21
20	1	21
21	0
0	0	0	0	0	0	0
1	7	2	4	4	2	2
2	8	0	0	4	0	2
3	9	0	0	0	2	0
4	4	0	0	0	0	1
5	9	0	0	0	5	0
6	1	1	0	4	0	2
7	1	0	0	3	3	2
8	3	5	0	0	1	0
9	7	2	0	0	2	3
10	3	5	0	0	4	5
11	8	5	2	4	1	4
12	7	0	0	5	2	0
13	4	0	3	4	0	0
14	2	5	3	4	0	0
15	3	3	2	4	2	2
16	10	4	0	0	0	0
17	2	1	0	0	0	0
18	6	1	5	3	5	1
19	4	0	0	0	0	4
20	7	0	0	0	2	0
21	0	0	0	0	0	0
5	5	5	5	5
